
Gurobi 12.0.2 (win64) logging started Tue Nov 25 19:38:54 2025

Set parameter LogFile to value "C:\Ioana\_uni\honours\slp\algorithm\Main_files\results\paracetamol_respiration_improved\Task_003_Sample005_irr_gurobi.log"
Gurobi Optimizer version 12.0.2 build v12.0.2rc0 (win64 - Windows 11.0 (26100.2))

CPU model: Intel(R) Core(TM) Ultra 5 125H, instruction set [SSE2|AVX|AVX2]
Thread count: 14 physical cores, 18 logical processors, using up to 18 threads

Non-default parameters:
TimeLimit  2200

Optimize a model with 47236 rows, 34504 columns and 146714 nonzeros
Model fingerprint: 0x99a1d118
Variable types: 17255 continuous, 17249 integer (17249 binary)
Coefficient statistics:
  Matrix range     [1e-04, 8e+04]
  Objective range  [1e-04, 9e-01]
  Bounds range     [1e+00, 1e+03]
  RHS range        [1e+00, 1e+00]
Presolve removed 30793 rows and 21551 columns
Presolve time: 0.32s
Presolved: 16443 rows, 12953 columns, 54665 nonzeros
Variable types: 6410 continuous, 6543 integer (6543 binary)

Root relaxation: objective 1.649283e-04, 521 iterations, 0.03 seconds (0.04 work units)

    Nodes    |    Current Node    |     Objective Bounds      |     Work
 Expl Unexpl |  Obj  Depth IntInf | Incumbent    BestBd   Gap | It/Node Time

     0     0    0.00016    0   12          -    0.00016      -     -    0s
H    0     0                       0.1291420    0.00016   100%     -    0s
H    0     0                       0.1142501    0.00016   100%     -    0s
     0     0    0.02490    0   18    0.11425    0.02490  78.2%     -    0s
     0     0    0.02490    0   11    0.11425    0.02490  78.2%     -    0s
     0     0          -    0         0.11425    0.11425  0.00%     -    0s

Cutting planes:
  Gomory: 1
  Cover: 5
  Implied bound: 3
  Clique: 1
  MIR: 2
  Flow cover: 3
  Flow path: 5
  Network: 1
  Relax-and-lift: 2

Explored 1 nodes (3227 simplex iterations) in 1.01 seconds (1.10 work units)
Thread count was 18 (of 18 available processors)

Solution count 2: 0.11425 0.129142 

Optimal solution found (tolerance 1.00e-04)
Best objective 1.142501287880e-01, best bound 1.142456430244e-01, gap 0.0039%
